NAME : kroB100-C-5-0-a.24794.tour
COMMENT : Length = 24794
COMMENT : Found by LKH-3 [Keld Helsgaun] Tue Jul 30 13:14:12 2024
TYPE : TOUR
DIMENSION : 100
TOUR_SECTION
1
3
91
28
11
93
85
73
53
70
39
40
67
5
62
69
26
100
56
81
79
47
65
37
72
54
52
58
84
7
60
74
57
34
9
25
46
38
20
80
75
30
49
86
68
10
21
90
95
29
8
99
97
76
59
32
98
12
71
27
61
35
94
66
87
89
43
50
16
2
42
14
64
83
4
6
15
33
82
51
48
31
63
13
78
17
41
44
19
92
96
36
45
18
24
77
55
22
23
88
-1
EOF
